multiobj/instances/uniform/Ter.5.2.0.00.3.in
5 2
0 1 862 105 5 
1 0 100 377 177 
862 100 0 804 728 
105 377 804 0 463 
5 177 728 463 0 
0 230 252 58 766 
230 0 207 75 384 
252 207 0 393 600 
58 75 393 0 903 
766 384 600 903 0 
0 399 341 805 173 
399 0 804 533 118 
341 804 0 186 533 
805 533 186 0 917 
173 118 533 917 0 
