multiobj/solutions/Ter.5.2.0.00.3.out
7 2
2 3 4 0 1 
1705048 3698290 
3 2 1 4 0 
1736384 2896826 
3 2 1 0 4 
2233364 2677678 
2 3 0 1 4 
2713236 2652674 
3 1 2 0 4 
3037780 2487942 
4 1 2 0 3 
3321276 2427126 
4 0 3 1 2 
3518838 2410660 
